% demand
num_movements = 21;
loading_factor = [850, 1100, 1400, 1650, 900, 1900, 1450, 1000, 1450, 1750, 1100, 1250, 1000, 1800, 850, 850, 850, 900, 800, 950, 1050];
pickup_time = [0, 0, 1, 1, 2, 2, 3, 4, 4, 4, 5, 5, 5, 5, 5, 6, 8, 8, 8, 8, 8];
delivery_time = [2, 4, 4, 3, 3, 4, 4, 5, 5, 5, 7, 8, 7, 8, 7, 9, 9, 9, 9, 9, 9];

% transporter definition
total_capacity = 7000;
num_decks = 3;
capacity = [3000, 1000, 3000];

% ways out of decks
num_ways_out = 1;
paths_out = array3d(decks, ways_out, decks, [
% ways out of deck d1
2, 3, 0, 

% ways out of deck d2
3, 0, 0, 

% ways out of deck d3
0, 0, 0,	

]);

